17
Step 0 H5-C Dist 3.00
C 0.0000 0.0000 0.0000
H 0.0000 0.0000 1.0900
H 1.0280 0.0000 -0.3630
H -0.5140 0.8900 -0.3630
H -0.5140 -0.8900 -0.3630
H 0.0000 0.0000 -3.0000
F 0.1163 0.0069 0.1079
Cl -0.1145 -0.0204 0.1085
F -0.1823 0.5639 0.0630
Cl 0.3304 -0.4327 0.1017
F -0.0984 -0.0572 -0.1110
Cl 0.0864 0.0750 -0.1106
F 0.7449 0.0002 1.0807
Cl 1.8041 0.0024 -0.3677
F 0.3101 0.9122 -0.4345
Cl 0.2178 -0.9362 -0.4433
F 0.7613 -0.0005 -2.9975
17
Step 1 H5-C Dist 2.96
C 0.0000 0.0000 0.0000
H 0.0000 0.0000 1.0900
H 1.0280 0.0000 -0.3630
H -0.5140 0.8900 -0.3630
H -0.5140 -0.8900 -0.3630
H 0.0000 0.0000 -2.9576
F 0.1014 0.0492 0.1117
Cl -0.1166 -0.0208 0.1062
F -0.3934 0.5894 0.0045
Cl 0.3535 -0.4315 0.1752
F -0.0853 -0.0805 -0.1072
Cl 0.0867 0.0639 -0.1170
F 0.5582 0.0056 1.0640
Cl 1.6723 0.0051 -0.3720
F 0.2690 0.8524 -0.4682
Cl -0.0014 -0.9044 -0.4808
F 0.6094 -0.0011 -2.9875
17
Step 2 H5-C Dist 2.92
C 0.0000 0.0000 0.0000
H 0.0000 0.0000 1.0900
H 1.0280 0.0000 -0.3630
H -0.5140 0.8900 -0.3630
H -0.5140 -0.8900 -0.3630
H 0.0000 0.0000 -2.9153
F 0.0863 0.0768 0.1087
Cl -0.1191 -0.0164 0.1042
F -0.5376 0.7533 -0.2348
Cl 0.3656 -0.4274 0.2047
F -0.0790 -0.0933 -0.1012
Cl 0.0909 0.0541 -0.1186
F 0.4430 0.0172 1.0339
Cl 1.4825 0.0060 -0.3728
F 0.2429 0.7621 -0.4582
Cl -0.0872 -0.8274 -0.4812
F 0.4388 -0.0018 -2.9656
17
Step 3 H5-C Dist 2.87
C 0.0000 0.0000 0.0000
H 0.0000 0.0000 1.0900
H 1.0280 0.0000 -0.3630
H -0.5140 0.8900 -0.3630
H -0.5140 -0.8900 -0.3630
H 0.0000 0.0000 -2.8729
F 0.0820 0.0847 0.1061
Cl -0.1217 -0.0100 0.1019
F -0.5966 0.7655 -0.2591
Cl 0.3620 -0.4253 0.2406
F -0.0760 -0.1007 -0.0963
Cl 0.0959 0.0442 -0.1186
F 0.4325 0.0365 0.9904
Cl 1.4765 0.0089 -0.3773
F 0.2244 0.6206 -0.3941
Cl -0.1095 -0.7299 -0.4748
F 0.4391 -0.0033 -2.9630
17
Step 4 H5-C Dist 2.83
C 0.0000 0.0000 0.0000
H 0.0000 0.0000 1.0900
H 1.0280 0.0000 -0.3630
H -0.5140 0.8900 -0.3630
H -0.5140 -0.8900 -0.3630
H 0.0000 0.0000 -2.8305
F 0.0839 0.0756 0.1115
Cl -0.1264 0.0059 0.0963
F -0.6256 0.7810 -0.2695
Cl 0.3543 -0.4432 0.2863
F -0.0825 -0.0980 -0.0938
Cl 0.1098 0.0186 -0.1130
F 0.4183 0.0633 0.9487
Cl 1.4767 0.0128 -0.3843
F 0.1497 0.3870 -0.2585
Cl -0.1546 -0.6217 -0.4414
F 0.4300 -0.0043 -2.9578
17
Step 5 H5-C Dist 2.79
C 0.0000 0.0000 0.0000
H 0.0000 0.0000 1.0900
H 1.0280 0.0000 -0.3630
H -0.5140 0.8900 -0.3630
H -0.5140 -0.8900 -0.3630
H 0.0000 0.0000 -2.7881
F 0.0942 0.0416 0.1210
Cl -0.1265 0.0431 0.0861
F -0.6496 0.8039 -0.2778
Cl 0.3393 -0.5005 0.3619
F -0.0987 -0.0739 -0.1002
Cl 0.1233 -0.0254 -0.0966
F 0.3983 0.1020 0.9130
Cl 1.4751 0.0203 -0.3947
F 0.0726 0.3484 -0.2189
Cl -0.2161 -0.5284 -0.3790
F 0.4183 -0.0049 -2.9499
17
Step 6 H5-C Dist 2.75
C 0.0000 0.0000 0.0000
H 0.0000 0.0000 1.0900
H 1.0280 0.0000 -0.3630
H -0.5140 0.8900 -0.3630
H -0.5140 -0.8900 -0.3630
H 0.0000 0.0000 -2.7458
F 0.1013 0.0305 0.1185
Cl -0.1200 0.0506 0.0911
F -0.6701 0.8317 -0.2903
Cl 0.3095 -0.5383 0.4141
F -0.1061 -0.0613 -0.1010
Cl 0.1200 -0.0352 -0.0978
F 0.3645 0.1442 0.8694
Cl 1.4734 0.0264 -0.4054
F 0.0637 0.3564 -0.2071
Cl -0.2641 -0.4659 -0.2970
F 0.4046 -0.0059 -2.9394
17
Step 7 H5-C Dist 2.70
C 0.0000 0.0000 0.0000
H 0.0000 0.0000 1.0900
H 1.0280 0.0000 -0.3630
H -0.5140 0.8900 -0.3630
H -0.5140 -0.8900 -0.3630
H 0.0000 0.0000 -2.7034
F 0.1050 0.0135 0.1184
Cl -0.1137 0.0571 0.0953
F -0.6819 0.8525 -0.3045
Cl 0.2860 -0.5653 0.4581
F -0.1114 -0.0414 -0.1052
Cl 0.1169 -0.0417 -0.0991
F 0.3150 0.1782 0.8185
Cl 1.4718 0.0305 -0.4161
F 0.0742 0.3618 -0.1956
Cl -0.2670 -0.4109 -0.2261
F 0.3892 -0.0073 -2.9262
17
Step 8 H5-C Dist 2.66
C 0.0000 0.0000 0.0000
H 0.0000 0.0000 1.0900
H 1.0280 0.0000 -0.3630
H -0.5140 0.8900 -0.3630
H -0.5140 -0.8900 -0.3630
H 0.0000 0.0000 -2.6610
F 0.1007 -0.0239 0.1205
Cl -0.1062 0.0604 0.1017
F -0.6889 0.8662 -0.3199
Cl 0.2743 -0.5970 0.5100
F -0.1105 0.0002 -0.1140
Cl 0.1167 -0.0381 -0.1010
F 0.2512 0.1981 0.7655
Cl 1.4703 0.0327 -0.4268
F 0.1069 0.3691 -0.1730
Cl -0.2263 -0.3400 -0.1518
F 0.3726 -0.0090 -2.9106
17
Step 9 H5-C Dist 2.62
C 0.0000 0.0000 0.0000
H 0.0000 0.0000 1.0900
H 1.0280 0.0000 -0.3630
H -0.5140 0.8900 -0.3630
H -0.5140 -0.8900 -0.3630
H 0.0000 0.0000 -2.6186
F 0.0964 -0.0465 0.1174
Cl -0.1015 0.0624 0.1052
F -0.6925 0.8706 -0.3355
Cl 0.2679 -0.6263 0.5639
F -0.1086 0.0201 -0.1142
Cl 0.1125 -0.0406 -0.1047
F 0.1756 0.1981 0.7125
Cl 1.4685 0.0334 -0.4377
F 0.1527 0.3667 -0.1398
Cl -0.2327 -0.3398 -0.1352
F 0.3550 -0.0110 -2.8926
17
Step 10 H5-C Dist 2.58
C 0.0000 0.0000 0.0000
H 0.0000 0.0000 1.0900
H 1.0280 0.0000 -0.3630
H -0.5140 0.8900 -0.3630
H -0.5140 -0.8900 -0.3630
H 0.0000 0.0000 -2.5763
F 0.0933 -0.0612 0.1131
Cl -0.0976 0.0635 0.1082
F -0.6939 0.8689 -0.3495
Cl 0.2587 -0.6419 0.6116
F -0.1070 0.0343 -0.1123
Cl 0.1089 -0.0423 -0.1078
F 0.0949 0.1755 0.6635
Cl 1.4666 0.0333 -0.4481
F 0.1906 0.3549 -0.1242
Cl -0.2374 -0.3353 -0.1339
F 0.3368 -0.0130 -2.8723
17
Step 11 H5-C Dist 2.53
C 0.0000 0.0000 0.0000
H 0.0000 0.0000 1.0900
H 1.0280 0.0000 -0.3630
H -0.5140 0.8900 -0.3630
H -0.5140 -0.8900 -0.3630
H 0.0000 0.0000 -2.5339
F 0.0911 -0.0723 0.1082
Cl -0.0939 0.0639 0.1111
F -0.6939 0.8655 -0.3620
Cl 0.2492 -0.6465 0.6573
F -0.1056 0.0461 -0.1095
Cl 0.1051 -0.0432 -0.1111
F 0.0262 0.1418 0.6246
Cl 1.4647 0.0327 -0.4579
F 0.2243 0.3388 -0.1143
Cl -0.2408 -0.3314 -0.1365
F 0.3182 -0.0148 -2.8498
17
Step 12 H5-C Dist 2.49
C 0.0000 0.0000 0.0000
H 0.0000 0.0000 1.0900
H 1.0280 0.0000 -0.3630
H -0.5140 0.8900 -0.3630
H -0.5140 -0.8900 -0.3630
H 0.0000 0.0000 -2.4915
F 0.0886 -0.0817 0.1036
Cl -0.0905 0.0643 0.1136
F -0.6930 0.8615 -0.3733
Cl 0.2398 -0.6404 0.7043
F -0.1035 0.0562 -0.1068
Cl 0.1017 -0.0438 -0.1141
F -0.0168 0.1145 0.5927
Cl 1.4627 0.0317 -0.4673
F 0.2531 0.3220 -0.1047
Cl -0.2440 -0.3276 -0.1398
F 0.2995 -0.0166 -2.8252
17
Step 13 H5-C Dist 2.45
C 0.0000 0.0000 0.0000
H 0.0000 0.0000 1.0900
H 1.0280 0.0000 -0.3630
H -0.5140 0.8900 -0.3630
H -0.5140 -0.8900 -0.3630
H 0.0000 0.0000 -2.4492
F 0.0853 -0.0906 0.0988
Cl -0.0885 0.0640 0.1152
F -0.6914 0.8574 -0.3837
Cl 0.2280 -0.6207 0.7567
F -0.1006 0.0652 -0.1045
Cl 0.0992 -0.0435 -0.1163
F -0.0378 0.0995 0.5507
Cl 1.4605 0.0302 -0.4768
F 0.2770 0.3055 -0.0962
Cl -0.2471 -0.3241 -0.1430
F 0.2808 -0.0182 -2.7986
17
Step 14 H5-C Dist 2.41
C 0.0000 0.0000 0.0000
H 0.0000 0.0000 1.0900
H 1.0280 0.0000 -0.3630
H -0.5140 0.8900 -0.3630
H -0.5140 -0.8900 -0.3630
H 0.0000 0.0000 -2.4068
F 0.0813 -0.1022 0.0906
Cl -0.0914 0.0596 0.1151
F -0.6894 0.8544 -0.3936
Cl 0.2089 -0.5777 0.8210
F -0.0959 0.0751 -0.1024
Cl 0.0988 -0.0398 -0.1180
F -0.0444 0.0971 0.4736
Cl 1.4582 0.0278 -0.4863
F 0.2986 0.2892 -0.0899
Cl -0.2487 -0.3220 -0.1482
F 0.2625 -0.0199 -2.7701
17
Step 15 H5-C Dist 2.36
C 0.0000 0.0000 0.0000
H 0.0000 0.0000 1.0900
H 1.0280 0.0000 -0.3630
H -0.5140 0.8900 -0.3630
H -0.5140 -0.8900 -0.3630
H 0.0000 0.0000 -2.3644
F 0.0717 -0.1153 0.0827
Cl -0.1052 0.0400 0.1117
F -0.6872 0.8534 -0.4034
Cl 0.1711 -0.4833 0.9056
F -0.0864 0.0895 -0.0993
Cl 0.1063 -0.0281 -0.1148
F -0.0322 0.1270 0.4333
Cl 1.4558 0.0241 -0.4958
F 0.3216 0.2714 -0.0793
Cl -0.2424 -0.3212 -0.1628
F 0.2444 -0.0216 -2.7401
17
Step 16 H5-C Dist 2.32
C 0.0000 0.0000 0.0000
H 0.0000 0.0000 1.0900
H 1.0280 0.0000 -0.3630
H -0.5140 0.8900 -0.3630
H -0.5140 -0.8900 -0.3630
H 0.0000 0.0000 -2.3220
F 0.0632 -0.1243 0.0765
Cl -0.1161 0.0208 0.1061
F -0.6841 0.8517 -0.4134
Cl 0.0576 -0.1757 1.0512
F -0.0790 0.1008 -0.0945
Cl 0.1133 -0.0178 -0.1098
F -0.0085 0.1663 0.4025
Cl 1.4531 0.0182 -0.5054
F 0.3459 0.2484 -0.0702
Cl -0.2282 -0.3222 -0.1842
F 0.2268 -0.0236 -2.7085
17
Step 17 H5-C Dist 2.28
C 0.0000 0.0000 0.0000
H 0.0000 0.0000 1.0900
H 1.0280 0.0000 -0.3630
H -0.5140 0.8900 -0.3630
H -0.5140 -0.8900 -0.3630
H 0.0000 0.0000 -2.2797
F 0.0604 -0.1270 0.0743
Cl -0.1171 0.0150 0.1061
F -0.6800 0.8484 -0.4237
Cl 0.0448 -0.1763 1.0974
F -0.0773 0.1054 -0.0907
Cl 0.1133 -0.0142 -0.1103
F 0.0084 0.1921 0.3861
Cl 1.4504 0.0097 -0.5148
F 0.3687 0.2178 -0.0722
Cl -0.2190 -0.3235 -0.1936
F 0.2098 -0.0257 -2.6755
17
Step 18 H5-C Dist 2.24
C 0.0000 0.0000 0.0000
H 0.0000 0.0000 1.0900
H 1.0280 0.0000 -0.3630
H -0.5140 0.8900 -0.3630
H -0.5140 -0.8900 -0.3630
H 0.0000 0.0000 -2.2373
F 0.0581 -0.1286 0.0735
Cl -0.1155 0.0155 0.1078
F -0.6755 0.8442 -0.4322
Cl 0.0326 -0.1760 1.1210
F -0.0757 0.1084 -0.0886
Cl 0.1111 -0.0148 -0.1124
F 0.0183 0.2049 0.3781
Cl 1.4472 0.0014 -0.5242
F 0.3852 0.1895 -0.0762
Cl -0.2218 -0.3214 -0.1937
F 0.1933 -0.0278 -2.6413
17
Step 19 H5-C Dist 2.19
C 0.0000 0.0000 0.0000
H 0.0000 0.0000 1.0900
H 1.0280 0.0000 -0.3630
H -0.5140 0.8900 -0.3630
H -0.5140 -0.8900 -0.3630
H 0.0000 0.0000 -2.1949
F 0.0554 -0.1300 0.0730
Cl -0.1138 0.0175 0.1093
F -0.6707 0.8396 -0.4396
Cl 0.0213 -0.1745 1.1358
F -0.0735 0.1109 -0.0873
Cl 0.1091 -0.0165 -0.1141
F 0.0279 0.2129 0.3726
Cl 1.4435 -0.0067 -0.5337
F 0.3973 0.1648 -0.0796
Cl -0.2278 -0.3184 -0.1915
F 0.1775 -0.0299 -2.6060
17
Step 20 H5-C Dist 2.15
C 0.0000 0.0000 0.0000
H 0.0000 0.0000 1.0900
H 1.0280 0.0000 -0.3630
H -0.5140 0.8900 -0.3630
H -0.5140 -0.8900 -0.3630
H 0.0000 0.0000 -2.1525
F 0.0524 -0.1314 0.0728
Cl -0.1124 0.0200 0.1103
F -0.6658 0.8349 -0.4459
Cl 0.0108 -0.1725 1.1458
F -0.0712 0.1130 -0.0865
Cl 0.1075 -0.0186 -0.1152
F 0.0377 0.2183 0.3681
Cl 1.4393 -0.0143 -0.5433
F 0.4060 0.1438 -0.0828
Cl -0.2340 -0.3150 -0.1893
F 0.1623 -0.0319 -2.5697
17
Step 21 H5-C Dist 2.11
C 0.0000 0.0000 0.0000
H 0.0000 0.0000 1.0900
H 1.0280 0.0000 -0.3630
H -0.5140 0.8900 -0.3630
H -0.5140 -0.8900 -0.3630
H 0.0000 0.0000 -2.1102
F 0.0496 -0.1324 0.0729
Cl -0.1112 0.0225 0.1111
F -0.6609 0.8304 -0.4514
Cl 0.0013 -0.1705 1.1526
F -0.0689 0.1147 -0.0861
Cl 0.1062 -0.0207 -0.1160
F 0.0471 0.2220 0.3644
Cl 1.4348 -0.0215 -0.5529
F 0.4123 0.1265 -0.0858
Cl -0.2397 -0.3117 -0.1873
F 0.1478 -0.0338 -2.5325
17
Step 22 H5-C Dist 2.07
C 0.0000 0.0000 0.0000
H 0.0000 0.0000 1.0900
H 1.0280 0.0000 -0.3630
H -0.5140 0.8900 -0.3630
H -0.5140 -0.8900 -0.3630
H 0.0000 0.0000 -2.0678
F 0.0471 -0.1332 0.0731
Cl -0.1101 0.0249 0.1116
F -0.6562 0.8261 -0.4561
Cl -0.0075 -0.1686 1.1572
F -0.0669 0.1160 -0.0860
Cl 0.1052 -0.0227 -0.1166
F 0.0557 0.2247 0.3613
Cl 1.4298 -0.0284 -0.5626
F 0.4166 0.1124 -0.0886
Cl -0.2447 -0.3086 -0.1856
F 0.1340 -0.0358 -2.4946
17
Step 23 H5-C Dist 2.03
C 0.0000 0.0000 0.0000
H 0.0000 0.0000 1.0900
H 1.0280 0.0000 -0.3630
H -0.5140 0.8900 -0.3630
H -0.5140 -0.8900 -0.3630
H 0.0000 0.0000 -2.0254
F 0.0449 -0.1338 0.0734
Cl -0.1092 0.0270 0.1120
F -0.6515 0.8221 -0.4602
Cl -0.0155 -0.1667 1.1604
F -0.0652 0.1170 -0.0860
Cl 0.1044 -0.0245 -0.1169
F 0.0632 0.2264 0.3587
Cl 1.4244 -0.0350 -0.5722
F 0.4196 0.1013 -0.0911
Cl -0.2490 -0.3059 -0.1841
F 0.1208 -0.0377 -2.4559
17
Step 24 H5-C Dist 1.98
C 0.0000 0.0000 0.0000
H 0.0000 0.0000 1.0900
H 1.0280 0.0000 -0.3630
H -0.5140 0.8900 -0.3630
H -0.5140 -0.8900 -0.3630
H 0.0000 0.0000 -1.9831
F 0.0430 -0.1342 0.0737
Cl -0.1085 0.0290 0.1122
F -0.6470 0.8184 -0.4637
Cl -0.0228 -0.1650 1.1625
F -0.0636 0.1177 -0.0861
Cl 0.1037 -0.0262 -0.1171
F 0.0697 0.2276 0.3565
Cl 1.4186 -0.0413 -0.5819
F 0.4217 0.0925 -0.0933
Cl -0.2526 -0.3035 -0.1828
F 0.1083 -0.0398 -2.4167
17
Step 25 H5-C Dist 1.94
C 0.0000 0.0000 0.0000
H 0.0000 0.0000 1.0900
H 1.0280 0.0000 -0.3630
H -0.5140 0.8900 -0.3630
H -0.5140 -0.8900 -0.3630
H 0.0000 0.0000 -1.9407
F 0.0414 -0.1345 0.0741
Cl -0.1079 0.0307 0.1124
F -0.6427 0.8151 -0.4668
Cl -0.0294 -0.1633 1.1638
F -0.0623 0.1183 -0.0863
Cl 0.1032 -0.0278 -0.1172
F 0.0753 0.2284 0.3547
Cl 1.4123 -0.0474 -0.5915
F 0.4231 0.0857 -0.0952
Cl -0.2556 -0.3015 -0.1818
F 0.0963 -0.0418 -2.3770
17
Step 26 H5-C Dist 1.90
C 0.0000 0.0000 0.0000
H 0.0000 0.0000 1.0900
H 1.0280 0.0000 -0.3630
H -0.5140 0.8900 -0.3630
H -0.5140 -0.8900 -0.3630
H 0.0000 0.0000 -1.8983
F 0.0400 -0.1347 0.0745
Cl -0.1073 0.0321 0.1125
F -0.6387 0.8120 -0.4695
Cl -0.0354 -0.1618 1.1646
F -0.0612 0.1187 -0.0866
Cl 0.1028 -0.0292 -0.1173
F 0.0799 0.2289 0.3532
Cl 1.4057 -0.0533 -0.6011
F 0.4241 0.0804 -0.0968
Cl -0.2580 -0.2998 -0.1809
F 0.0849 -0.0439 -2.3367
17
Step 27 H5-C Dist 1.86
C 0.0000 0.0000 0.0000
H 0.0000 0.0000 1.0900
H 1.0280 0.0000 -0.3630
H -0.5140 0.8900 -0.3630
H -0.5140 -0.8900 -0.3630
H 0.0000 0.0000 -1.8559
F 0.0388 -0.1349 0.0748
Cl -0.1069 0.0334 0.1125
F -0.6348 0.8093 -0.4719
Cl -0.0408 -0.1603 1.1649
F -0.0603 0.1190 -0.0868
Cl 0.1024 -0.0304 -0.1172
F 0.0837 0.2292 0.3521
Cl 1.3986 -0.0591 -0.6107
F 0.4248 0.0762 -0.0981
Cl -0.2600 -0.2983 -0.1802
F 0.0740 -0.0462 -2.2961
17
Step 28 H5-C Dist 1.81
C 0.0000 0.0000 0.0000
H 0.0000 0.0000 1.0900
H 1.0280 0.0000 -0.3630
H -0.5140 0.8900 -0.3630
H -0.5140 -0.8900 -0.3630
H 0.0000 0.0000 -1.8136
F 0.0378 -0.1350 0.0752
Cl -0.1066 0.0345 0.1125
F -0.6310 0.8067 -0.4741
Cl -0.0457 -0.1590 1.1650
F -0.0594 0.1192 -0.0871
Cl 0.1022 -0.0314 -0.1172
F 0.0869 0.2293 0.3511
Cl 1.3911 -0.0648 -0.6203
F 0.4253 0.0730 -0.0991
Cl -0.2617 -0.2971 -0.1798
F 0.0635 -0.0485 -2.2551
17
Step 29 H5-C Dist 1.77
C 0.0000 0.0000 0.0000
H 0.0000 0.0000 1.0900
H 1.0280 0.0000 -0.3630
H -0.5140 0.8900 -0.3630
H -0.5140 -0.8900 -0.3630
H 0.0000 0.0000 -1.7712
F 0.0370 -0.1350 0.0755
Cl -0.1064 0.0355 0.1124
F -0.6275 0.8044 -0.4760
Cl -0.0500 -0.1577 1.1649
F -0.0587 0.1194 -0.0873
Cl 0.1020 -0.0323 -0.1171
F 0.0894 0.2293 0.3504
Cl 1.3830 -0.0704 -0.6299
F 0.4257 0.0705 -0.0999
Cl -0.2630 -0.2960 -0.1795
F 0.0535 -0.0510 -2.2138
17
Step 30 H5-C Dist 1.73
C 0.0000 0.0000 0.0000
H 0.0000 0.0000 1.0900
H 1.0280 0.0000 -0.3630
H -0.5140 0.8900 -0.3630
H -0.5140 -0.8900 -0.3630
H 0.0000 0.0000 -1.7288
F 0.0362 -0.1351 0.0757
Cl -0.1062 0.0363 0.1123
F -0.6240 0.8023 -0.4778
Cl -0.0538 -0.1566 1.1646
F -0.0581 0.1195 -0.0875
Cl 0.1019 -0.0331 -0.1170
F 0.0916 0.2292 0.3498
Cl 1.3745 -0.0759 -0.6395
F 0.4259 0.0685 -0.1005
Cl -0.2641 -0.2950 -0.1793
F 0.0438 -0.0536 -2.1721
17
Step 31 H5-C Dist 1.69
C 0.0000 0.0000 0.0000
H 0.0000 0.0000 1.0900
H 1.0280 0.0000 -0.3630
H -0.5140 0.8900 -0.3630
H -0.5140 -0.8900 -0.3630
H 0.0000 0.0000 -1.6864
F 0.0356 -0.1351 0.0760
Cl -0.1061 0.0369 0.1122
F -0.6207 0.8003 -0.4794
Cl -0.0572 -0.1555 1.1643
F -0.0575 0.1196 -0.0877
Cl 0.1018 -0.0337 -0.1169
F 0.0933 0.2291 0.3494
Cl 1.3654 -0.0814 -0.6490
F 0.4261 0.0670 -0.1010
Cl -0.2649 -0.2942 -0.1794
F 0.0345 -0.0564 -2.1302
17
Step 32 H5-C Dist 1.64
C 0.0000 0.0000 0.0000
H 0.0000 0.0000 1.0900
H 1.0280 0.0000 -0.3630
H -0.5140 0.8900 -0.3630
H -0.5140 -0.8900 -0.3630
H 0.0000 0.0000 -1.6441
F 0.0350 -0.1351 0.0762
Cl -0.1060 0.0375 0.1121
F -0.6174 0.7984 -0.4808
Cl -0.0603 -0.1546 1.1639
F -0.0571 0.1197 -0.0879
Cl 0.1017 -0.0343 -0.1167
F 0.0947 0.2289 0.3491
Cl 1.3558 -0.0868 -0.6585
F 0.4262 0.0658 -0.1014
Cl -0.2656 -0.2934 -0.1795
F 0.0255 -0.0594 -2.0881
17
Step 33 H5-C Dist 1.60
C 0.0000 0.0000 0.0000
H 0.0000 0.0000 1.0900
H 1.0280 0.0000 -0.3630
H -0.5140 0.8900 -0.3630
H -0.5140 -0.8900 -0.3630
H 0.0000 0.0000 -1.6017
F 0.0345 -0.1352 0.0763
Cl -0.1059 0.0380 0.1120
F -0.6142 0.7965 -0.4821
Cl -0.0629 -0.1537 1.1634
F -0.0566 0.1198 -0.0881
Cl 0.1017 -0.0348 -0.1166
F 0.0959 0.2286 0.3489
Cl 1.3455 -0.0921 -0.6679
F 0.4263 0.0650 -0.1016
Cl -0.2661 -0.2927 -0.1798
F 0.0167 -0.0626 -2.0457
17
Step 34 H5-C Dist 1.56
C 0.0000 0.0000 0.0000
H 0.0000 0.0000 1.0900
H 1.0280 0.0000 -0.3630
H -0.5140 0.8900 -0.3630
H -0.5140 -0.8900 -0.3630
H 0.0000 0.0000 -1.5593
F 0.0341 -0.1352 0.0764
Cl -0.1059 0.0384 0.1118
F -0.6110 0.7947 -0.4833
Cl -0.0653 -0.1529 1.1630
F -0.0562 0.1199 -0.0882
Cl 0.1017 -0.0352 -0.1165
F 0.0968 0.2283 0.3488
Cl 1.3346 -0.0974 -0.6773
F 0.4263 0.0643 -0.1018
Cl -0.2665 -0.2920 -0.1802
F 0.0081 -0.0660 -2.0031
17
Step 35 H5-C Dist 1.52
C 0.0000 0.0000 0.0000
H 0.0000 0.0000 1.0900
H 1.0280 0.0000 -0.3630
H -0.5140 0.8900 -0.3630
H -0.5140 -0.8900 -0.3630
H 0.0000 0.0000 -1.5169
F 0.0337 -0.1353 0.0765
Cl -0.1059 0.0387 0.1117
F -0.6079 0.7929 -0.4844
Cl -0.0673 -0.1523 1.1625
F -0.0559 0.1200 -0.0883
Cl 0.1018 -0.0355 -0.1163
F 0.0976 0.2279 0.3488
Cl 1.3230 -0.1026 -0.6866
F 0.4264 0.0639 -0.1019
Cl -0.2668 -0.2913 -0.1808
F -0.0004 -0.0698 -1.9602
17
Step 36 H5-C Dist 1.47
C 0.0000 0.0000 0.0000
H 0.0000 0.0000 1.0900
H 1.0280 0.0000 -0.3630
H -0.5140 0.8900 -0.3630
H -0.5140 -0.8900 -0.3630
H 0.0000 0.0000 -1.4746
F 0.0333 -0.1353 0.0765
Cl -0.1060 0.0389 0.1116
F -0.6047 0.7911 -0.4853
Cl -0.0691 -0.1517 1.1621
F -0.0556 0.1200 -0.0883
Cl 0.1018 -0.0357 -0.1162
F 0.0982 0.2275 0.3489
Cl 1.3108 -0.1077 -0.6958
F 0.4264 0.0636 -0.1019
Cl -0.2670 -0.2906 -0.1815
F -0.0088 -0.0737 -1.9171
17
Step 37 H5-C Dist 1.43
C 0.0000 0.0000 0.0000
H 0.0000 0.0000 1.0900
H 1.0280 0.0000 -0.3630
H -0.5140 0.8900 -0.3630
H -0.5140 -0.8900 -0.3630
H 0.0000 0.0000 -1.4322
F 0.0330 -0.1354 0.0765
Cl -0.1060 0.0391 0.1115
F -0.6016 0.7893 -0.4861
Cl -0.0707 -0.1511 1.1617
F -0.0553 0.1201 -0.0884
Cl 0.1019 -0.0359 -0.1161
F 0.0987 0.2269 0.3490
Cl 1.2977 -0.1128 -0.7048
F 0.4263 0.0635 -0.1020
Cl -0.2671 -0.2898 -0.1823
F -0.0171 -0.0781 -1.8738
17
Step 38 H5-C Dist 1.39
C 0.0000 0.0000 0.0000
H 0.0000 0.0000 1.0900
H 1.0280 0.0000 -0.3630
H -0.5140 0.8900 -0.3630
H -0.5140 -0.8900 -0.3630
H 0.0000 0.0000 -1.3898
F 0.0327 -0.1355 0.0765
Cl -0.1061 0.0392 0.1114
F -0.5985 0.7874 -0.4867
Cl -0.0721 -0.1507 1.1613
F -0.0550 0.1203 -0.0884
Cl 0.1019 -0.0360 -0.1160
F 0.0991 0.2264 0.3492
Cl 1.2839 -0.1177 -0.7137
F 0.4263 0.0635 -0.1020
Cl -0.2672 -0.2891 -0.1833
F -0.0255 -0.0828 -1.8302
17
Step 39 H5-C Dist 1.35
C 0.0000 0.0000 0.0000
H 0.0000 0.0000 1.0900
H 1.0280 0.0000 -0.3630
H -0.5140 0.8900 -0.3630
H -0.5140 -0.8900 -0.3630
H 0.0000 0.0000 -1.3475
F 0.0324 -0.1356 0.0764
Cl -0.1061 0.0392 0.1113
F -0.5953 0.7855 -0.4872
Cl -0.0733 -0.1503 1.1609
F -0.0548 0.1204 -0.0883
Cl 0.1020 -0.0361 -0.1159
F 0.0995 0.2257 0.3495
Cl 1.2692 -0.1226 -0.7223
F 0.4262 0.0637 -0.1020
Cl -0.2672 -0.2883 -0.1844
F -0.0339 -0.0878 -1.7862
17
Step 40 H5-C Dist 1.31
C 0.0000 0.0000 0.0000
H 0.0000 0.0000 1.0900
H 1.0280 0.0000 -0.3630
H -0.5140 0.8900 -0.3630
H -0.5140 -0.8900 -0.3630
H 0.0000 0.0000 -1.3051
F 0.0322 -0.1358 0.0762
Cl -0.1062 0.0392 0.1113
F -0.5922 0.7835 -0.4876
Cl -0.0743 -0.1499 1.1606
F -0.0546 0.1206 -0.0882
Cl 0.1020 -0.0361 -0.1159
F 0.0998 0.2249 0.3499
Cl 1.2537 -0.1273 -0.7307
F 0.4261 0.0639 -0.1021
Cl -0.2671 -0.2874 -0.1856
F -0.0424 -0.0934 -1.7420
17
Step 41 H5-C Dist 1.26
C 0.0000 0.0000 0.0000
H 0.0000 0.0000 1.0900
H 1.0280 0.0000 -0.3630
H -0.5140 0.8900 -0.3630
H -0.5140 -0.8900 -0.3630
H 0.0000 0.0000 -1.2627
F 0.0320 -0.1359 0.0760
Cl -0.1063 0.0391 0.1112
F -0.5890 0.7814 -0.4877
Cl -0.0752 -0.1496 1.1603
F -0.0544 0.1207 -0.0881
Cl 0.1021 -0.0360 -0.1158
F 0.1000 0.2240 0.3503
Cl 1.2373 -0.1319 -0.7387
F 0.4259 0.0643 -0.1021
Cl -0.2670 -0.2865 -0.1870
F -0.0510 -0.0994 -1.6974
17
Step 42 H5-C Dist 1.22
C 0.0000 0.0000 0.0000
H 0.0000 0.0000 1.0900
H 1.0280 0.0000 -0.3630
H -0.5140 0.8900 -0.3630
H -0.5140 -0.8900 -0.3630
H 0.0000 0.0000 -1.2203
F 0.0318 -0.1361 0.0758
Cl -0.1063 0.0389 0.1112
F -0.5858 0.7793 -0.4877
Cl -0.0760 -0.1494 1.1600
F -0.0543 0.1209 -0.0879
Cl 0.1022 -0.0359 -0.1158
F 0.1003 0.2230 0.3508
Cl 1.2200 -0.1364 -0.7463
F 0.4257 0.0647 -0.1022
Cl -0.2668 -0.2854 -0.1887
F -0.0599 -0.1059 -1.6524
17
Step 43 H5-C Dist 1.18
C 0.0000 0.0000 0.0000
H 0.0000 0.0000 1.0900
H 1.0280 0.0000 -0.3630
H -0.5140 0.8900 -0.3630
H -0.5140 -0.8900 -0.3630
H 0.0000 0.0000 -1.1780
F 0.0317 -0.1363 0.0754
Cl -0.1064 0.0387 0.1112
F -0.5827 0.7771 -0.4875
Cl -0.0766 -0.1492 1.1597
F -0.0542 0.1212 -0.0876
Cl 0.1022 -0.0357 -0.1158
F 0.1005 0.2219 0.3514
Cl 1.2017 -0.1407 -0.7534
F 0.4255 0.0653 -0.1024
Cl -0.2665 -0.2842 -0.1905
F -0.0690 -0.1131 -1.6070
17
Step 44 H5-C Dist 1.14
C 0.0000 0.0000 0.0000
H 0.0000 0.0000 1.0900
H 1.0280 0.0000 -0.3630
H -0.5140 0.8900 -0.3630
H -0.5140 -0.8900 -0.3630
H 0.0000 0.0000 -1.1356
F 0.0316 -0.1366 0.0750
Cl -0.1065 0.0383 0.1112
F -0.5795 0.7748 -0.4870
Cl -0.0772 -0.1490 1.1595
F -0.0541 0.1214 -0.0873
Cl 0.1022 -0.0354 -0.1159
F 0.1007 0.2206 0.3521
Cl 1.1824 -0.1447 -0.7600
F 0.4252 0.0661 -0.1026
Cl -0.2662 -0.2829 -0.1926
F -0.0784 -0.1209 -1.5609
17
Step 45 H5-C Dist 1.09
C 0.0000 0.0000 0.0000
H 0.0000 0.0000 1.0900
H 1.0280 0.0000 -0.3630
H -0.5140 0.8900 -0.3630
H -0.5140 -0.8900 -0.3630
H 0.0000 0.0000 -1.0932
F 0.0315 -0.1368 0.0745
Cl -0.1065 0.0379 0.1113
F -0.5765 0.7724 -0.4864
Cl -0.0776 -0.1488 1.1593
F -0.0540 0.1217 -0.0868
Cl 0.1023 -0.0350 -0.1160
F 0.1009 0.2192 0.3528
Cl 1.1622 -0.1485 -0.7660
F 0.4248 0.0670 -0.1029
Cl -0.2658 -0.2814 -0.1950
F -0.0882 -0.1295 -1.5142
17
Step 46 H5-C Dist 1.05
C 0.0000 0.0000 0.0000
H 0.0000 0.0000 1.0900
H 1.0280 0.0000 -0.3630
H -0.5140 0.8900 -0.3630
H -0.5140 -0.8900 -0.3630
H 0.0000 0.0000 -1.0508
F 0.0315 -0.1372 0.0739
Cl -0.1066 0.0373 0.1115
F -0.5734 0.7700 -0.4855
Cl -0.0780 -0.1487 1.1592
F -0.0540 0.1221 -0.0863
Cl 0.1023 -0.0344 -0.1161
F 0.1012 0.2176 0.3537
Cl 1.1411 -0.1520 -0.7711
F 0.4244 0.0680 -0.1034
Cl -0.2653 -0.2797 -0.1977
F -0.0984 -0.1390 -1.4667
17
Step 47 H5-C Dist 1.01
C 0.0000 0.0000 0.0000
H 0.0000 0.0000 1.0900
H 1.0280 0.0000 -0.3630
H -0.5140 0.8900 -0.3630
H -0.5140 -0.8900 -0.3630
H 0.0000 0.0000 -1.0085
F 0.0315 -0.1375 0.0731
Cl -0.1066 0.0366 0.1116
F -0.5706 0.7675 -0.4845
Cl -0.0784 -0.1485 1.1591
F -0.0541 0.1225 -0.0857
Cl 0.1023 -0.0338 -0.1163
F 0.1014 0.2158 0.3546
Cl 1.1190 -0.1551 -0.7755
F 0.4239 0.0692 -0.1039
Cl -0.2647 -0.2777 -0.2008
F -0.1089 -0.1493 -1.4182
17
Step 48 H5-C Dist 0.97
C 0.0000 0.0000 0.0000
H 0.0000 0.0000 1.0900
H 1.0280 0.0000 -0.3630
H -0.5140 0.8900 -0.3630
H -0.5140 -0.8900 -0.3630
H 0.0000 0.0000 -0.9661
F 0.0316 -0.1380 0.0723
Cl -0.1067 0.0358 0.1119
F -0.5678 0.7650 -0.4832
Cl -0.0787 -0.1484 1.1590
F -0.0542 0.1230 -0.0850
Cl 0.1023 -0.0330 -0.1165
F 0.1018 0.2137 0.3557
Cl 1.0960 -0.1579 -0.7789
F 0.4233 0.0707 -0.1046
Cl -0.2640 -0.2753 -0.2043
F -0.1199 -0.1608 -1.3686
17
Step 49 H5-C Dist 0.92
C 0.0000 0.0000 0.0000
H 0.0000 0.0000 1.0900
H 1.0280 0.0000 -0.3630
H -0.5140 0.8900 -0.3630
H -0.5140 -0.8900 -0.3630
H 0.0000 0.0000 -0.9237
F 0.0318 -0.1385 0.0712
Cl -0.1067 0.0347 0.1122
F -0.5653 0.7626 -0.4817
Cl -0.0789 -0.1483 1.1590
F -0.0544 0.1235 -0.0840
Cl 0.1022 -0.0320 -0.1168
F 0.1021 0.2113 0.3569
Cl 1.0723 -0.1603 -0.7813
F 0.4226 0.0724 -0.1055
Cl -0.2631 -0.2725 -0.2083
F -0.1313 -0.1733 -1.3177
17
Step 50 H5-C Dist 0.88
C 0.0000 0.0000 0.0000
H 0.0000 0.0000 1.0900
H 1.0280 0.0000 -0.3630
H -0.5140 0.8900 -0.3630
H -0.5140 -0.8900 -0.3630
H 0.0000 0.0000 -0.8814
F 0.0321 -0.1390 0.0700
Cl -0.1066 0.0335 0.1126
F -0.5629 0.7602 -0.4801
Cl -0.0791 -0.1482 1.1591
F -0.0547 0.1241 -0.0829
Cl 0.1021 -0.0308 -0.1172
F 0.1026 0.2087 0.3581
Cl 1.0478 -0.1621 -0.7825
F 0.4217 0.0743 -0.1066
Cl -0.2621 -0.2691 -0.2130
F -0.1430 -0.1871 -1.2652
17
Step 51 H5-C Dist 0.84
C 0.0000 0.0000 0.0000
H 0.0000 0.0000 1.0900
H 1.0280 0.0000 -0.3630
H -0.5140 0.8900 -0.3630
H -0.5140 -0.8900 -0.3630
H 0.0000 0.0000 -0.8390
F 0.0326 -0.1396 0.0685
Cl -0.1065 0.0319 0.1131
F -0.5609 0.7580 -0.4784
Cl -0.0793 -0.1480 1.1592
F -0.0551 0.1248 -0.0816
Cl 0.1019 -0.0293 -0.1178
F 0.1031 0.2057 0.3596
Cl 1.0229 -0.1634 -0.7826
F 0.4206 0.0766 -0.1079
Cl -0.2608 -0.2651 -0.2184
F -0.1550 -0.2023 -1.2109
17
Step 52 H5-C Dist 0.80
C 0.0000 0.0000 0.0000
H 0.0000 0.0000 1.0900
H 1.0280 0.0000 -0.3630
H -0.5140 0.8900 -0.3630
H -0.5140 -0.8900 -0.3630
H 0.0000 0.0000 -0.7966
F 0.0332 -0.1404 0.0666
Cl -0.1064 0.0300 0.1138
F -0.5593 0.7560 -0.4767
Cl -0.0794 -0.1479 1.1594
F -0.0557 0.1255 -0.0800
Cl 0.1016 -0.0275 -0.1185
F 0.1038 0.2024 0.3611
Cl 0.9977 -0.1641 -0.7813
F 0.4193 0.0793 -0.1096
Cl -0.2594 -0.2602 -0.2245
F -0.1669 -0.2188 -1.1546
17
Step 53 H5-C Dist 0.75
C 0.0000 0.0000 0.0000
H 0.0000 0.0000 1.0900
H 1.0280 0.0000 -0.3630
H -0.5140 0.8900 -0.3630
H -0.5140 -0.8900 -0.3630
H 0.0000 0.0000 -0.7542
F 0.0340 -0.1412 0.0644
Cl -0.1060 0.0277 0.1147
F -0.5580 0.7542 -0.4751
Cl -0.0796 -0.1477 1.1596
F -0.0565 0.1264 -0.0779
Cl 0.1010 -0.0252 -0.1194
F 0.1046 0.1986 0.3628
Cl 0.9724 -0.1642 -0.7788
F 0.4177 0.0824 -0.1116
Cl -0.2579 -0.2544 -0.2311
F -0.1784 -0.2366 -1.0961
17
Step 54 H5-C Dist 0.71
C 0.0000 0.0000 0.0000
H 0.0000 0.0000 1.0900
H 1.0280 0.0000 -0.3630
H -0.5140 0.8900 -0.3630
H -0.5140 -0.8900 -0.3630
H 0.0000 0.0000 -0.7119
F 0.0353 -0.1420 0.0618
Cl -0.1052 0.0249 0.1160
F -0.5573 0.7528 -0.4736
Cl -0.0797 -0.1474 1.1600
F -0.0577 0.1273 -0.0755
Cl 0.1000 -0.0225 -0.1208
F 0.1059 0.1944 0.3645
Cl 0.9474 -0.1637 -0.7750
F 0.4157 0.0858 -0.1142
Cl -0.2569 -0.2478 -0.2370
F -0.1888 -0.2557 -1.0355
17
Step 55 H5-C Dist 0.67
C 0.0000 0.0000 0.0000
H 0.0000 0.0000 1.0900
H 1.0280 0.0000 -0.3630
H -0.5140 0.8900 -0.3630
H -0.5140 -0.8900 -0.3630
H 0.0000 0.0000 -0.6695
F 0.0375 -0.1427 0.0587
Cl -0.1033 0.0221 0.1182
F -0.5570 0.7519 -0.4725
Cl -0.0798 -0.1470 1.1607
F -0.0597 0.1281 -0.0725
Cl 0.0975 -0.0196 -0.1233
F 0.1082 0.1903 0.3660
Cl 0.9230 -0.1627 -0.7700
F 0.4128 0.0898 -0.1180
Cl -0.2583 -0.2423 -0.2387
F -0.1974 -0.2758 -0.9731
17
Step 56 H5-C Dist 0.63
C 0.0000 0.0000 0.0000
H 0.0000 0.0000 1.0900
H 1.0280 0.0000 -0.3630
H -0.5140 0.8900 -0.3630
H -0.5140 -0.8900 -0.3630
H 0.0000 0.0000 -0.6271
F 0.0415 -0.1430 0.0553
Cl -0.0988 0.0197 0.1224
F -0.5570 0.7514 -0.4719
Cl -0.0798 -0.1464 1.1619
F -0.0631 0.1284 -0.0690
Cl 0.0917 -0.0170 -0.1281
F 0.1129 0.1872 0.3663
Cl 0.8992 -0.1613 -0.7638
F 0.4079 0.0944 -0.1247
Cl -0.2654 -0.2414 -0.2294
F -0.2035 -0.2969 -0.9087
17
Step 57 H5-C Dist 0.58
C 0.0000 0.0000 0.0000
H 0.0000 0.0000 1.0900
H 1.0280 0.0000 -0.3630
H -0.5140 0.8900 -0.3630
H -0.5140 -0.8900 -0.3630
H 0.0000 0.0000 -0.5847
F 0.0479 -0.1425 0.0509
Cl -0.0902 0.0177 0.1290
F -0.5570 0.7514 -0.4719
Cl -0.0796 -0.1455 1.1639
F -0.0687 0.1279 -0.0643
Cl 0.0811 -0.0145 -0.1354
F 0.1224 0.1868 0.3640
Cl 0.8762 -0.1596 -0.7565
F 0.3998 0.1000 -0.1375
Cl -0.2781 -0.2459 -0.2065
F -0.2071 -0.3194 -0.8413
17
Step 58 H5-C Dist 0.54
C 0.0000 0.0000 0.0000
H 0.0000 0.0000 1.0900
H 1.0280 0.0000 -0.3630
H -0.5140 0.8900 -0.3630
H -0.5140 -0.8900 -0.3630
H 0.0000 0.0000 -0.5424
F 0.0563 -0.1416 0.0443
Cl -0.0774 0.0149 0.1374
F -0.5571 0.7521 -0.4726
Cl -0.0793 -0.1443 1.1666
F -0.0761 0.1271 -0.0572
Cl 0.0663 -0.0114 -0.1437
F 0.1378 0.1896 0.3575
Cl 0.8545 -0.1581 -0.7482
F 0.3875 0.1073 -0.1578
Cl -0.2932 -0.2517 -0.1741
F -0.2087 -0.3437 -0.7692
17
Step 59 H5-C Dist 0.50
C 0.0000 0.0000 0.0000
H 0.0000 0.0000 1.0900
H 1.0280 0.0000 -0.3630
H -0.5140 0.8900 -0.3630
H -0.5140 -0.8900 -0.3630
H 0.0000 0.0000 -0.5000
F 0.0647 -0.1407 0.0343
Cl -0.0611 0.0107 0.1457
F -0.5578 0.7533 -0.4740
Cl -0.0790 -0.1426 1.1699
F -0.0838 0.1262 -0.0474
Cl 0.0488 -0.0072 -0.1509
F 0.1573 0.1946 0.3470
Cl 0.8346 -0.1577 -0.7391
F 0.3741 0.1171 -0.1767
Cl -0.3089 -0.2546 -0.1358
F -0.2083 -0.3697 -0.6915
