4
Step 0 H-H Dist 0.40
H 0.0000 0.0000 0.0000
H 0.4000 0.0000 0.0000
F 0.3893 0.0000 2.2454
Cl 1.4542 0.0000 -0.0108
4
Step 1 H-H Dist 0.44
H 0.0000 0.0000 0.0000
H 0.4441 0.0000 0.0000
F 0.3830 0.0000 2.2278
Cl 1.3455 0.0000 -0.0189
4
Step 2 H-H Dist 0.49
H 0.0000 0.0000 0.0000
H 0.4881 0.0000 0.0000
F 0.3771 0.0000 2.2090
Cl 1.1932 0.0000 -0.0253
4
Step 3 H-H Dist 0.53
H 0.0000 0.0000 0.0000
H 0.5322 0.0000 0.0000
F 0.3720 0.0000 2.1907
Cl 0.9661 0.0000 -0.0272
4
Step 4 H-H Dist 0.58
H 0.0000 0.0000 0.0000
H 0.5763 0.0000 0.0000
F 0.3676 0.0000 2.1725
Cl 1.0167 0.0000 -0.0452
4
Step 5 H-H Dist 0.62
H 0.0000 0.0000 0.0000
H 0.6203 0.0000 0.0000
F 0.3633 0.0000 2.1536
Cl 1.0587 0.0000 -0.0654
4
Step 6 H-H Dist 0.66
H 0.0000 0.0000 0.0000
H 0.6644 0.0000 0.0000
F 0.3592 0.0000 2.1341
Cl 1.0990 0.0000 -0.0888
4
Step 7 H-H Dist 0.71
H 0.0000 0.0000 0.0000
H 0.7085 0.0000 0.0000
F 0.3553 0.0000 2.1139
Cl 1.1371 0.0000 -0.1155
4
Step 8 H-H Dist 0.75
H 0.0000 0.0000 0.0000
H 0.7525 0.0000 0.0000
F 0.3517 0.0000 2.0931
Cl 1.1723 0.0000 -0.1456
4
Step 9 H-H Dist 0.80
H 0.0000 0.0000 0.0000
H 0.7966 0.0000 0.0000
F 0.3484 0.0000 2.0716
Cl 1.2036 0.0000 -0.1791
4
Step 10 H-H Dist 0.84
H 0.0000 0.0000 0.0000
H 0.8407 0.0000 0.0000
F 0.3454 0.0000 2.0494
Cl 1.2298 0.0000 -0.2157
4
Step 11 H-H Dist 0.88
H 0.0000 0.0000 0.0000
H 0.8847 0.0000 0.0000
F 0.3427 0.0000 2.0266
Cl 1.2498 0.0000 -0.2548
4
Step 12 H-H Dist 0.93
H 0.0000 0.0000 0.0000
H 0.9288 0.0000 0.0000
F 0.3405 0.0000 2.0032
Cl 1.2622 0.0000 -0.2955
4
Step 13 H-H Dist 0.97
H 0.0000 0.0000 0.0000
H 0.9729 0.0000 0.0000
F 0.3387 0.0000 1.9792
Cl 1.2656 0.0000 -0.3362
4
Step 14 H-H Dist 1.02
H 0.0000 0.0000 0.0000
H 1.0169 0.0000 0.0000
F 0.3372 0.0000 1.9547
Cl 1.2590 0.0000 -0.3748
4
Step 15 H-H Dist 1.06
H 0.0000 0.0000 0.0000
H 1.0610 0.0000 0.0000
F 0.3362 0.0000 1.9297
Cl 1.2420 0.0000 -0.4082
4
Step 16 H-H Dist 1.11
H 0.0000 0.0000 0.0000
H 1.1051 0.0000 0.0000
F 0.3355 0.0000 1.9044
Cl 1.2150 0.0000 -0.4333
4
Step 17 H-H Dist 1.15
H 0.0000 0.0000 0.0000
H 1.1492 0.0000 0.0000
F 0.3353 0.0000 1.8788
Cl 1.1796 0.0000 -0.4466
4
Step 18 H-H Dist 1.19
H 0.0000 0.0000 0.0000
H 1.1932 0.0000 0.0000
F 0.3353 0.0000 1.8531
Cl 1.1392 0.0000 -0.4452
4
Step 19 H-H Dist 1.24
H 0.0000 0.0000 0.0000
H 1.2373 0.0000 0.0000
F 0.3355 0.0000 1.8274
Cl 1.0984 0.0000 -0.4276
4
Step 20 H-H Dist 1.28
H 0.0000 0.0000 0.0000
H 1.2814 0.0000 0.0000
F 0.3360 0.0000 1.8018
Cl 1.0627 0.0000 -0.3945
4
Step 21 H-H Dist 1.33
H 0.0000 0.0000 0.0000
H 1.3254 0.0000 0.0000
F 0.3364 0.0000 1.7766
Cl 1.0377 0.0000 -0.3494
4
Step 22 H-H Dist 1.37
H 0.0000 0.0000 0.0000
H 1.3695 0.0000 0.0000
F 0.3368 0.0000 1.7518
Cl 1.0274 0.0000 -0.2986
4
Step 23 H-H Dist 1.41
H 0.0000 0.0000 0.0000
H 1.4136 0.0000 0.0000
F 0.3369 0.0000 1.7275
Cl 1.0329 0.0000 -0.2492
4
Step 24 H-H Dist 1.46
H 0.0000 0.0000 0.0000
H 1.4576 0.0000 0.0000
F 0.3366 0.0000 1.7036
Cl 1.0518 0.0000 -0.2065
4
Step 25 H-H Dist 1.50
H 0.0000 0.0000 0.0000
H 1.5017 0.0000 0.0000
F 0.3359 0.0000 1.6799
Cl 1.0805 0.0000 -0.1728
4
Step 26 H-H Dist 1.55
H 0.0000 0.0000 0.0000
H 1.5458 0.0000 0.0000
F 0.3347 0.0000 1.6563
Cl 1.1154 0.0000 -0.1477
4
Step 27 H-H Dist 1.59
H 0.0000 0.0000 0.0000
H 1.5898 0.0000 0.0000
F 0.3330 0.0000 1.6326
Cl 1.1540 0.0000 -0.1294
4
Step 28 H-H Dist 1.63
H 0.0000 0.0000 0.0000
H 1.6339 0.0000 0.0000
F 0.3308 0.0000 1.6086
Cl 1.1948 0.0000 -0.1165
4
Step 29 H-H Dist 1.68
H 0.0000 0.0000 0.0000
H 1.6780 0.0000 0.0000
F 0.3280 0.0000 1.5843
Cl 1.2370 0.0000 -0.1074
4
Step 30 H-H Dist 1.72
H 0.0000 0.0000 0.0000
H 1.7220 0.0000 0.0000
F 0.3248 0.0000 1.5594
Cl 1.2799 0.0000 -0.1011
4
Step 31 H-H Dist 1.77
H 0.0000 0.0000 0.0000
H 1.7661 0.0000 0.0000
F 0.3210 0.0000 1.5338
Cl 1.3233 0.0000 -0.0967
4
Step 32 H-H Dist 1.81
H 0.0000 0.0000 0.0000
H 1.8102 0.0000 0.0000
F 0.3166 0.0000 1.5075
Cl 1.3671 0.0000 -0.0937
4
Step 33 H-H Dist 1.85
H 0.0000 0.0000 0.0000
H 1.8542 0.0000 0.0000
F 0.3118 0.0000 1.4802
Cl 1.4110 0.0000 -0.0917
4
Step 34 H-H Dist 1.90
H 0.0000 0.0000 0.0000
H 1.8983 0.0000 0.0000
F 0.3064 0.0000 1.4519
Cl 1.4550 0.0000 -0.0903
4
Step 35 H-H Dist 1.94
H 0.0000 0.0000 0.0000
H 1.9424 0.0000 0.0000
F 0.3005 0.0000 1.4224
Cl 1.4992 0.0000 -0.0894
4
Step 36 H-H Dist 1.99
H 0.0000 0.0000 0.0000
H 1.9864 0.0000 0.0000
F 0.2940 0.0000 1.3915
Cl 1.5433 0.0000 -0.0888
4
Step 37 H-H Dist 2.03
H 0.0000 0.0000 0.0000
H 2.0305 0.0000 0.0000
F 0.2868 0.0000 1.3590
Cl 1.5875 0.0000 -0.0884
4
Step 38 H-H Dist 2.07
H 0.0000 0.0000 0.0000
H 2.0746 0.0000 0.0000
F 0.2791 0.0000 1.3247
Cl 1.6317 0.0000 -0.0880
4
Step 39 H-H Dist 2.12
H 0.0000 0.0000 0.0000
H 2.1186 0.0000 0.0000
F 0.2707 0.0000 1.2883
Cl 1.6759 0.0000 -0.0876
4
Step 40 H-H Dist 2.16
H 0.0000 0.0000 0.0000
H 2.1627 0.0000 0.0000
F 0.2616 0.0000 1.2495
Cl 1.7200 0.0000 -0.0872
4
Step 41 H-H Dist 2.21
H 0.0000 0.0000 0.0000
H 2.2068 0.0000 0.0000
F 0.2516 0.0000 1.2078
Cl 1.7641 0.0000 -0.0867
4
Step 42 H-H Dist 2.25
H 0.0000 0.0000 0.0000
H 2.2508 0.0000 0.0000
F 0.2408 0.0000 1.1628
Cl 1.8082 0.0000 -0.0860
4
Step 43 H-H Dist 2.29
H 0.0000 0.0000 0.0000
H 2.2949 0.0000 0.0000
F 0.2290 0.0000 1.1135
Cl 1.8523 0.0000 -0.0851
4
Step 44 H-H Dist 2.34
H 0.0000 0.0000 0.0000
H 2.3390 0.0000 0.0000
F 0.2160 0.0000 1.0591
Cl 1.8963 0.0000 -0.0840
4
Step 45 H-H Dist 2.38
H 0.0000 0.0000 0.0000
H 2.3831 0.0000 0.0000
F 0.2016 0.0000 0.9979
Cl 1.9402 0.0000 -0.0827
4
Step 46 H-H Dist 2.43
H 0.0000 0.0000 0.0000
H 2.4271 0.0000 0.0000
F 0.1853 0.0000 0.9277
Cl 1.9841 0.0000 -0.0812
4
Step 47 H-H Dist 2.47
H 0.0000 0.0000 0.0000
H 2.4712 0.0000 0.0000
F 0.1664 0.0000 0.8446
Cl 2.0279 0.0000 -0.0793
4
Step 48 H-H Dist 2.52
H 0.0000 0.0000 0.0000
H 2.5153 0.0000 0.0000
F 0.1435 0.0000 0.7407
Cl 2.0717 0.0000 -0.0770
4
Step 49 H-H Dist 2.56
H 0.0000 0.0000 0.0000
H 2.5593 0.0000 0.0000
F 0.1133 0.0000 0.5977
Cl 2.1154 0.0000 -0.0742
4
Step 50 H-H Dist 2.60
H 0.0000 0.0000 0.0000
H 2.6034 0.0000 0.0000
F 0.0798 0.0000 0.4353
Cl 2.1590 0.0000 -0.0707
4
Step 51 H-H Dist 2.65
H 0.0000 0.0000 0.0000
H 2.6475 0.0000 0.0000
F 0.0782 0.0000 0.4419
Cl 2.2025 0.0000 -0.0668
4
Step 52 H-H Dist 2.69
H 0.0000 0.0000 0.0000
H 2.6915 0.0000 0.0000
F 0.0755 0.0000 0.4424
Cl 2.2460 0.0000 -0.0632
4
Step 53 H-H Dist 2.74
H 0.0000 0.0000 0.0000
H 2.7356 0.0000 0.0000
F 0.0731 0.0000 0.4428
Cl 2.2896 0.0000 -0.0597
4
Step 54 H-H Dist 2.78
H 0.0000 0.0000 0.0000
H 2.7797 0.0000 0.0000
F 0.0707 0.0000 0.4432
Cl 2.3333 0.0000 -0.0565
4
Step 55 H-H Dist 2.82
H 0.0000 0.0000 0.0000
H 2.8237 0.0000 0.0000
F 0.0685 0.0000 0.4435
Cl 2.3770 0.0000 -0.0534
4
Step 56 H-H Dist 2.87
H 0.0000 0.0000 0.0000
H 2.8678 0.0000 0.0000
F 0.0664 0.0000 0.4439
Cl 2.4207 0.0000 -0.0505
4
Step 57 H-H Dist 2.91
H 0.0000 0.0000 0.0000
H 2.9119 0.0000 0.0000
F 0.0645 0.0000 0.4441
Cl 2.4645 0.0000 -0.0478
4
Step 58 H-H Dist 2.96
H 0.0000 0.0000 0.0000
H 2.9559 0.0000 0.0000
F 0.0626 0.0000 0.4444
Cl 2.5083 0.0000 -0.0452
4
Step 59 H-H Dist 3.00
H 0.0000 0.0000 0.0000
H 3.0000 0.0000 0.0000
F 0.0608 0.0000 0.4446
Cl 2.5521 0.0000 -0.0428
