4
EVM Radical Recombination Frame
H -1.4878 0.0000 -0.0000
H 1.4873 0.0000 0.0000
X -1.0478 0.0000 0.0000
X 1.9464 0.0000 0.0000
4
EVM Radical Recombination Frame
H -1.4854 0.0000 -0.0000
H 1.4833 0.0000 0.0000
X -1.0348 0.0000 0.0000
X 1.9350 0.0000 0.0000
4
EVM Radical Recombination Frame
H -1.4819 0.0000 -0.0000
H 1.4812 0.0000 0.0000
X -1.0225 0.0000 0.0000
X 1.9213 0.0000 0.0000
4
EVM Radical Recombination Frame
H -1.4694 0.0000 -0.0000
H 1.4693 0.0000 0.0000
X -1.0191 0.0000 0.0000
X 1.9172 0.0000 0.0000
4
EVM Radical Recombination Frame
H -1.4560 0.0000 -0.0000
H 1.4556 0.0000 0.0000
X -1.0161 0.0000 0.0000
X 1.9146 0.0000 0.0000
4
EVM Radical Recombination Frame
H -1.4525 0.0000 -0.0000
H 1.4504 0.0000 0.0000
X -1.0029 0.0000 0.0000
X 1.9031 0.0000 0.0000
4
EVM Radical Recombination Frame
H -1.4489 0.0000 -0.0000
H 1.4481 0.0000 0.0000
X -0.9895 0.0000 0.0000
X 1.8884 0.0000 0.0000
4
EVM Radical Recombination Frame
H -1.4363 0.0000 -0.0000
H 1.4361 0.0000 0.0000
X -0.9849 0.0000 0.0000
X 1.8831 0.0000 0.0000
4
EVM Radical Recombination Frame
H -1.4218 0.0000 -0.0000
H 1.4214 0.0000 0.0000
X -0.9817 0.0000 0.0000
X 1.8801 0.0000 0.0000
4
EVM Radical Recombination Frame
H -1.4170 0.0000 -0.0000
H 1.4150 0.0000 0.0000
X -0.9685 0.0000 0.0000
X 1.8686 0.0000 0.0000
4
EVM Radical Recombination Frame
H -1.4132 0.0000 -0.0000
H 1.4122 0.0000 0.0000
X -0.9540 0.0000 0.0000
X 1.8530 0.0000 0.0000
4
EVM Radical Recombination Frame
H -1.4005 0.0000 -0.0000
H 1.4002 0.0000 0.0000
X -0.9480 0.0000 0.0000
X 1.8463 0.0000 0.0000
4
EVM Radical Recombination Frame
H -1.3849 0.0000 -0.0000
H 1.3846 0.0000 0.0000
X -0.9445 0.0000 0.0000
X 1.8430 0.0000 0.0000
4
EVM Radical Recombination Frame
H -1.3787 0.0000 -0.0000
H 1.3768 0.0000 0.0000
X -0.9313 0.0000 0.0000
X 1.8313 0.0000 0.0000
4
EVM Radical Recombination Frame
H -1.3747 0.0000 -0.0000
H 1.3735 0.0000 0.0000
X -0.9156 0.0000 0.0000
X 1.8148 0.0000 0.0000
4
EVM Radical Recombination Frame
H -1.3619 0.0000 -0.0000
H 1.3615 0.0000 0.0000
X -0.9082 0.0000 0.0000
X 1.8066 0.0000 0.0000
4
EVM Radical Recombination Frame
H -1.3452 0.0000 -0.0000
H 1.3448 0.0000 0.0000
X -0.9044 0.0000 0.0000
X 1.8028 0.0000 0.0000
4
EVM Radical Recombination Frame
H -1.3374 0.0000 -0.0000
H 1.3356 0.0000 0.0000
X -0.8911 0.0000 0.0000
X 1.7910 0.0000 0.0000
4
EVM Radical Recombination Frame
H -1.3329 0.0000 -0.0000
H 1.3316 0.0000 0.0000
X -0.8743 0.0000 0.0000
X 1.7736 0.0000 0.0000
4
EVM Radical Recombination Frame
H -1.3201 0.0000 -0.0000
H 1.3196 0.0000 0.0000
X -0.8653 0.0000 0.0000
X 1.7638 0.0000 0.0000
4
EVM Radical Recombination Frame
H -1.3023 0.0000 -0.0000
H 1.3018 0.0000 0.0000
X -0.8608 0.0000 0.0000
X 1.7593 0.0000 0.0000
4
EVM Radical Recombination Frame
H -1.2928 0.0000 -0.0000
H 1.2911 0.0000 0.0000
X -0.8476 0.0000 0.0000
X 1.7473 0.0000 0.0000
4
EVM Radical Recombination Frame
H -1.2877 0.0000 -0.0000
H 1.2863 0.0000 0.0000
X -0.8295 0.0000 0.0000
X 1.7290 0.0000 0.0000
4
EVM Radical Recombination Frame
H -1.2747 0.0000 -0.0000
H 1.2741 0.0000 0.0000
X -0.8189 0.0000 0.0000
X 1.7175 0.0000 0.0000
4
EVM Radical Recombination Frame
H -1.2559 0.0000 0.0000
H 1.2553 0.0000 0.0000
X -0.8136 0.0000 0.0000
X 1.7122 0.0000 0.0000
4
EVM Radical Recombination Frame
H -1.2445 0.0000 0.0000
H 1.2429 0.0000 0.0000
X -0.8004 0.0000 0.0000
X 1.6999 0.0000 0.0000
4
EVM Radical Recombination Frame
H -1.2386 0.0000 0.0000
H 1.2370 0.0000 0.0000
X -0.7811 0.0000 0.0000
X 1.6806 0.0000 0.0000
4
EVM Radical Recombination Frame
H -1.2254 0.0000 0.0000
H 1.2247 0.0000 0.0000
X -0.7686 0.0000 0.0000
X 1.6673 0.0000 0.0000
4
EVM Radical Recombination Frame
H -1.2055 0.0000 0.0000
H 1.2048 0.0000 0.0000
X -0.7622 0.0000 0.0000
X 1.6609 0.0000 0.0000
4
EVM Radical Recombination Frame
H -1.1920 0.0000 0.0000
H 1.1906 0.0000 0.0000
X -0.7489 0.0000 0.0000
X 1.6483 0.0000 0.0000
4
EVM Radical Recombination Frame
H -1.1851 0.0000 0.0000
H 1.1834 0.0000 0.0000
X -0.7283 0.0000 0.0000
X 1.6280 0.0000 0.0000
4
EVM Radical Recombination Frame
H -1.1716 0.0000 0.0000
H 1.1707 0.0000 0.0000
X -0.7137 0.0000 0.0000
X 1.6126 0.0000 0.0000
4
EVM Radical Recombination Frame
H -1.1506 0.0000 0.0000
H 1.1496 0.0000 0.0000
X -0.7060 0.0000 0.0000
X 1.6049 0.0000 0.0000
4
EVM Radical Recombination Frame
H -1.1347 0.0000 0.0000
H 1.1333 0.0000 0.0000
X -0.6925 0.0000 0.0000
X 1.5918 0.0000 0.0000
4
EVM Radical Recombination Frame
H -1.1264 0.0000 0.0000
H 1.1245 0.0000 0.0000
X -0.6706 0.0000 0.0000
X 1.5704 0.0000 0.0000
4
EVM Radical Recombination Frame
H -1.1124 0.0000 0.0000
H 1.1114 0.0000 0.0000
X -0.6537 0.0000 0.0000
X 1.5527 0.0000 0.0000
4
EVM Radical Recombination Frame
H -1.0903 0.0000 0.0000
H 1.0890 0.0000 0.0000
X -0.6441 0.0000 0.0000
X 1.5433 0.0000 -0.0000
4
EVM Radical Recombination Frame
H -1.0717 0.0000 0.0000
H 1.0704 0.0000 0.0000
X -0.6302 0.0000 0.0000
X 1.5295 0.0000 -0.0000
4
EVM Radical Recombination Frame
H -1.0615 0.0000 0.0000
H 1.0595 0.0000 0.0000
X -0.6070 0.0000 0.0000
X 1.5069 0.0000 -0.0000
4
EVM Radical Recombination Frame
H -1.0469 0.0000 0.0000
H 1.0456 0.0000 0.0000
X -0.5873 0.0000 0.0000
X 1.4865 0.0000 -0.0000
4
EVM Radical Recombination Frame
H -1.0234 0.0000 0.0000
H 1.0219 0.0000 0.0000
X -0.5755 0.0000 0.0000
X 1.4750 0.0000 -0.0000
4
EVM Radical Recombination Frame
H -1.0018 0.0000 0.0000
H 1.0004 0.0000 0.0000
X -0.5608 0.0000 0.0000
X 1.4601 0.0000 -0.0000
4
EVM Radical Recombination Frame
H -0.9891 0.0000 0.0000
H 0.9870 0.0000 0.0000
X -0.5360 0.0000 0.0000
X 1.4361 0.0000 -0.0000
4
EVM Radical Recombination Frame
H -0.9734 0.0000 0.0000
H 0.9719 0.0000 0.0000
X -0.5131 0.0000 0.0000
X 1.4126 0.0000 -0.0000
4
EVM Radical Recombination Frame
H -0.9484 0.0000 0.0000
H 0.9464 0.0000 0.0000
X -0.4982 0.0000 0.0000
X 1.3982 0.0000 -0.0000
4
EVM Radical Recombination Frame
H -0.9232 0.0000 0.0000
H 0.9215 0.0000 0.0000
X -0.4822 0.0000 0.0000
X 1.3817 0.0000 -0.0000
4
EVM Radical Recombination Frame
H -0.9070 0.0000 0.0000
H 0.9046 0.0000 0.0000
X -0.4556 0.0000 0.0000
X 1.3559 0.0000 -0.0000
4
EVM Radical Recombination Frame
H -0.8896 0.0000 0.0000
H 0.8876 0.0000 0.0000
X -0.4286 0.0000 0.0000
X 1.3286 0.0000 -0.0000
4
EVM Radical Recombination Frame
H -0.8626 0.0000 0.0000
H 0.8599 0.0000 0.0000
X -0.4094 0.0000 0.0000
X 1.3101 0.0000 -0.0000
4
EVM Radical Recombination Frame
H -0.8328 0.0000 0.0000
H 0.8306 0.0000 0.0000
X -0.3910 0.0000 0.0000
X 1.2912 0.0000 -0.0000
4
EVM Radical Recombination Frame
H -0.8114 0.0000 0.0000
H 0.8086 0.0000 0.0000
X -0.3620 0.0000 0.0000
X 1.2628 0.0000 -0.0000
4
EVM Radical Recombination Frame
H -0.7909 0.0000 0.0000
H 0.7882 0.0000 0.0000
X -0.3297 0.0000 0.0000
X 1.2304 0.0000 0.0000
4
EVM Radical Recombination Frame
H -0.7610 0.0000 0.0000
H 0.7572 0.0000 0.0000
X -0.3039 0.0000 0.0000
X 1.2057 0.0000 0.0000
4
EVM Radical Recombination Frame
H -0.7252 0.0000 0.0000
H 0.7214 0.0000 0.0000
X -0.2808 0.0000 0.0000
X 1.1824 0.0000 0.0000
4
EVM Radical Recombination Frame
H -0.6953 0.0000 0.0000
H 0.6913 0.0000 0.0000
X -0.2479 0.0000 0.0000
X 1.1498 0.0000 0.0000
4
EVM Radical Recombination Frame
H -0.6686 0.0000 0.0000
H 0.6639 0.0000 0.0000
X -0.2072 0.0000 0.0000
X 1.1098 0.0000 0.0000
4
EVM Radical Recombination Frame
H -0.6331 0.0000 0.0000
H 0.6267 0.0000 0.0000
X -0.1697 0.0000 0.0000
X 1.0740 0.0000 0.0000
4
EVM Radical Recombination Frame
H -0.5876 0.0000 0.0000
H 0.5793 0.0000 0.0000
X -0.1349 0.0000 0.0000
X 1.0412 0.0000 0.0000
4
EVM Radical Recombination Frame
H -0.5408 0.0000 0.0000
H 0.5313 0.0000 0.0000
X -0.0918 0.0000 0.0000
X 0.9992 0.0000 0.0000
4
EVM Radical Recombination Frame
H -0.4964 0.0000 0.0000
H 0.4830 0.0000 0.0000
X -0.0331 0.0000 0.0000
X 0.9443 0.0000 0.0000
4
EVM Radical Recombination Frame
H -0.4446 0.0000 0.0000
H 0.4357 0.0000 0.0000
X 0.0248 0.0000 0.0000
X 0.8821 0.0000 0.0000
4
EVM Radical Recombination Frame
H -0.3950 0.0000 0.0000
H 0.4425 0.0000 0.0000
X 0.0040 0.0000 0.0000
X 0.8464 0.0000 0.0000
4
EVM Radical Recombination Frame
H -0.4449 0.0000 0.0000
H 0.4297 0.0000 -0.0000
X 0.0150 0.0000 0.0000
X 0.8980 0.0000 0.0000
4
EVM Radical Recombination Frame
H -0.5104 0.0000 0.0000
H 0.4861 0.0000 -0.0000
X -0.0269 0.0000 0.0000
X 0.9491 0.0000 0.0000
4
EVM Radical Recombination Frame
H -0.5584 0.0000 0.0000
H 0.5439 0.0000 -0.0000
X -0.0798 0.0000 0.0000
X 0.9921 0.0000 0.0000
4
EVM Radical Recombination Frame
H -0.5895 0.0000 0.0000
H 0.5860 0.0000 -0.0000
X -0.1362 0.0000 0.0000
X 1.0375 0.0000 0.0000
4
EVM Radical Recombination Frame
H -0.6204 0.0000 0.0000
H 0.6197 0.0000 -0.0000
X -0.1835 0.0000 0.0000
X 1.0820 0.0000 0.0000
4
EVM Radical Recombination Frame
H -0.6664 0.0000 0.0000
H 0.6563 0.0000 -0.0000
X -0.2085 0.0000 0.0000
X 1.1165 0.0000 0.0000
4
EVM Radical Recombination Frame
H -0.7076 0.0000 0.0000
H 0.6956 0.0000 -0.0000
X -0.2327 0.0000 0.0000
X 1.1426 0.0000 0.0000
4
EVM Radical Recombination Frame
H -0.7318 0.0000 0.0000
H 0.7270 0.0000 -0.0000
X -0.2691 0.0000 0.0000
X 1.1717 0.0000 0.0000
4
EVM Radical Recombination Frame
H -0.7470 0.0000 0.0000
H 0.7493 0.0000 -0.0000
X -0.3105 0.0000 0.0000
X 1.2061 0.0000 0.0000
4
EVM Radical Recombination Frame
H -0.7779 0.0000 0.0000
H 0.7745 0.0000 -0.0000
X -0.3330 0.0000 0.0000
X 1.2342 0.0000 0.0000
4
EVM Radical Recombination Frame
H -0.8157 0.0000 0.0000
H 0.8055 0.0000 -0.0000
X -0.3458 0.0000 0.0000
X 1.2537 0.0000 0.0000
4
EVM Radical Recombination Frame
H -0.8388 0.0000 0.0000
H 0.8323 0.0000 -0.0000
X -0.3705 0.0000 0.0000
X 1.2748 0.0000 0.0000
4
EVM Radical Recombination Frame
H -0.8483 0.0000 0.0000
H 0.8495 0.0000 -0.0000
X -0.4065 0.0000 0.0000
X 1.3031 0.0000 0.0000
4
EVM Radical Recombination Frame
H -0.8678 0.0000 0.0000
H 0.8684 0.0000 -0.0000
X -0.4305 0.0000 0.0000
X 1.3278 0.0000 0.0000
4
EVM Radical Recombination Frame
H -0.9021 0.0000 0.0000
H 0.8941 0.0000 0.0000
X -0.4379 0.0000 -0.0000
X 1.3437 0.0000 0.0000
4
EVM Radical Recombination Frame
H -0.9255 0.0000 0.0000
H 0.9180 0.0000 0.0000
X -0.4544 0.0000 -0.0000
X 1.3597 0.0000 -0.0000
4
EVM Radical Recombination Frame
H -0.9331 0.0000 0.0000
H 0.9323 0.0000 0.0000
X -0.4851 0.0000 -0.0000
X 1.3838 0.0000 -0.0000
4
EVM Radical Recombination Frame
H -0.9443 0.0000 0.0000
H 0.9469 0.0000 0.0000
X -0.5108 0.0000 -0.0000
X 1.4060 0.0000 -0.0000
4
EVM Radical Recombination Frame
H -0.9744 0.0000 0.0000
H 0.9688 0.0000 0.0000
X -0.5163 0.0000 -0.0000
X 1.4196 0.0000 -0.0000
4
EVM Radical Recombination Frame
H -0.9985 0.0000 0.0000
H 0.9907 0.0000 0.0000
X -0.5264 0.0000 -0.0000
X 1.4320 0.0000 -0.0000
4
EVM Radical Recombination Frame
H -1.0059 0.0000 0.0000
H 1.0030 0.0000 0.0000
X -0.5520 0.0000 -0.0000
X 1.4527 0.0000 -0.0000
4
EVM Radical Recombination Frame
H -1.0111 0.0000 0.0000
H 1.0144 0.0000 0.0000
X -0.5787 0.0000 -0.0000
X 1.4732 0.0000 -0.0000
4
EVM Radical Recombination Frame
H -1.0364 0.0000 0.0000
H 1.0333 0.0000 0.0000
X -0.5843 0.0000 -0.0000
X 1.4852 0.0000 -0.0000
4
EVM Radical Recombination Frame
H -1.0611 0.0000 0.0000
H 1.0535 0.0000 0.0000
X -0.5895 0.0000 -0.0000
X 1.4949 0.0000 -0.0000
4
EVM Radical Recombination Frame
H -1.0693 0.0000 0.0000
H 1.0645 0.0000 0.0000
X -0.6102 0.0000 -0.0000
X 1.5128 0.0000 -0.0000
4
EVM Radical Recombination Frame
H -1.0705 0.0000 0.0000
H 1.0734 0.0000 0.0000
X -0.6370 0.0000 -0.0000
X 1.5318 0.0000 -0.0000
4
EVM Radical Recombination Frame
H -1.0905 0.0000 0.0000
H 1.0897 0.0000 0.0000
X -0.6441 0.0000 -0.0000
X 1.5427 0.0000 -0.0000
4
EVM Radical Recombination Frame
H -1.1155 0.0000 0.0000
H 1.1085 0.0000 0.0000
X -0.6454 0.0000 -0.0000
X 1.5502 0.0000 -0.0000
4
EVM Radical Recombination Frame
H -1.1249 0.0000 0.0000
H 1.1186 0.0000 0.0000
X -0.6615 0.0000 -0.0000
X 1.5656 0.0000 -0.0000
4
EVM Radical Recombination Frame
H -1.1237 0.0000 0.0000
H 1.1255 0.0000 0.0000
X -0.6875 0.0000 -0.0000
X 1.5834 0.0000 -0.0000
4
EVM Radical Recombination Frame
H -1.1383 0.0000 0.0000
H 1.1395 0.0000 0.0000
X -0.6969 0.0000 -0.0000
X 1.5934 0.0000 -0.0000
4
EVM Radical Recombination Frame
H -1.1630 0.0000 0.0000
H 1.1571 0.0000 0.0000
X -0.6954 0.0000 -0.0000
X 1.5991 0.0000 -0.0000
4
EVM Radical Recombination Frame
H -1.1739 0.0000 0.0000
H 1.1664 0.0000 0.0000
X -0.7072 0.0000 -0.0000
X 1.6124 0.0000 -0.0000
4
EVM Radical Recombination Frame
H -1.1715 0.0000 0.0000
H 1.1716 0.0000 0.0000
X -0.7315 0.0000 -0.0000
X 1.6291 0.0000 -0.0000
4
EVM Radical Recombination Frame
H -1.1807 0.0000 0.0000
H 1.1837 0.0000 0.0000
X -0.7435 0.0000 -0.0000
X 1.6383 0.0000 -0.0000
4
EVM Radical Recombination Frame
H -1.2046 0.0000 0.0000
H 1.2001 0.0000 0.0000
X -0.7403 0.0000 -0.0000
X 1.6426 0.0000 -0.0000
4
EVM Radical Recombination Frame
H -1.2170 0.0000 0.0000
H 1.2089 0.0000 0.0000
X -0.7480 0.0000 -0.0000
X 1.6539 0.0000 -0.0000
4
EVM Radical Recombination Frame
H -1.2145 0.0000 0.0000
H 1.2126 0.0000 0.0000
X -0.7700 0.0000 -0.0000
X 1.6696 0.0000 -0.0000
4
EVM Radical Recombination Frame
H -1.2187 0.0000 0.0000
H 1.2229 0.0000 0.0000
X -0.7846 0.0000 -0.0000
X 1.6783 0.0000 -0.0000
4
EVM Radical Recombination Frame
H -1.2411 0.0000 0.0000
H 1.2382 0.0000 0.0000
X -0.7806 0.0000 -0.0000
X 1.6813 0.0000 -0.0000
4
EVM Radical Recombination Frame
H -1.2551 0.0000 0.0000
H 1.2466 0.0000 0.0000
X -0.7845 0.0000 -0.0000
X 1.6907 0.0000 -0.0000
4
EVM Radical Recombination Frame
H -1.2529 0.0000 0.0000
H 1.2491 0.0000 0.0000
X -0.8039 0.0000 -0.0000
X 1.7055 0.0000 -0.0000
4
EVM Radical Recombination Frame
H -1.2529 0.0000 0.0000
H 1.2576 0.0000 0.0000
X -0.8206 0.0000 -0.0000
X 1.7137 0.0000 -0.0000
4
EVM Radical Recombination Frame
H -1.2730 0.0000 0.0000
H 1.2719 0.0000 0.0000
X -0.8168 0.0000 -0.0000
X 1.7156 0.0000 -0.0000
4
EVM Radical Recombination Frame
H -1.2884 0.0000 0.0000
H 1.2800 0.0000 0.0000
X -0.8172 0.0000 -0.0000
X 1.7233 0.0000 -0.0000
4
EVM Radical Recombination Frame
H -1.2872 0.0000 0.0000
H 1.2814 0.0000 0.0000
X -0.8336 0.0000 -0.0000
X 1.7371 0.0000 -0.0000
4
EVM Radical Recombination Frame
H -1.2838 0.0000 0.0000
H 1.2883 0.0000 0.0000
X -0.8518 0.0000 0.0000
X 1.7450 0.0000 -0.0000
4
EVM Radical Recombination Frame
H -1.3009 0.0000 0.0000
H 1.3016 0.0000 0.0000
X -0.8491 0.0000 0.0000
X 1.7460 0.0000 -0.0000
4
EVM Radical Recombination Frame
H -1.3174 0.0000 0.0000
H 1.3095 0.0000 0.0000
X -0.8464 0.0000 0.0000
X 1.7520 0.0000 -0.0000
4
EVM Radical Recombination Frame
H -1.3175 0.0000 0.0000
H 1.3099 0.0000 0.0000
X -0.8597 0.0000 0.0000
X 1.7650 0.0000 -0.0000
4
EVM Radical Recombination Frame
H -1.3115 0.0000 0.0000
H 1.3153 0.0000 0.0000
X -0.8787 0.0000 0.0000
X 1.7725 0.0000 -0.0000
4
EVM Radical Recombination Frame
H -1.3250 0.0000 0.0000
H 1.3276 0.0000 0.0000
X -0.8777 0.0000 0.0000
X 1.7728 0.0000 -0.0000
4
EVM Radical Recombination Frame
H -1.3424 0.0000 0.0000
H 1.3353 0.0000 0.0000
X -0.8724 0.0000 0.0000
X 1.7772 0.0000 -0.0000
4
EVM Radical Recombination Frame
H -1.3440 0.0000 0.0000
H 1.3349 0.0000 0.0000
X -0.8824 0.0000 0.0000
X 1.7892 0.0000 -0.0000
4
EVM Radical Recombination Frame
H -1.3362 0.0000 0.0000
H 1.3389 0.0000 0.0000
X -0.9014 0.0000 0.0000
X 1.7965 0.0000 -0.0000
4
EVM Radical Recombination Frame
H -1.3458 0.0000 0.0000
H 1.3501 0.0000 -0.0000
X -0.9028 0.0000 0.0000
X 1.7961 0.0000 -0.0000
4
EVM Radical Recombination Frame
H -1.3636 0.0000 0.0000
H 1.3576 0.0000 -0.0000
X -0.8954 0.0000 0.0000
X 1.7991 0.0000 -0.0000
4
EVM Radical Recombination Frame
H -1.3669 0.0000 0.0000
H 1.3566 0.0000 -0.0000
X -0.9021 0.0000 0.0000
X 1.8101 0.0000 -0.0000
4
EVM Radical Recombination Frame
H -1.3582 0.0000 -0.0000
H 1.3592 0.0000 -0.0000
X -0.9204 0.0000 0.0000
X 1.8172 0.0000 0.0000
4
EVM Radical Recombination Frame
H -1.3635 0.0000 -0.0000
H 1.3694 0.0000 -0.0000
X -0.9244 0.0000 0.0000
X 1.8162 0.0000 0.0000
4
EVM Radical Recombination Frame
H -1.3813 0.0000 -0.0000
H 1.3767 0.0000 -0.0000
X -0.9155 0.0000 0.0000
X 1.8177 0.0000 0.0000
4
EVM Radical Recombination Frame
H -1.3863 0.0000 -0.0000
H 1.3751 0.0000 -0.0000
X -0.9189 0.0000 0.0000
X 1.8278 0.0000 0.0000
4
EVM Radical Recombination Frame
H -1.3773 0.0000 -0.0000
H 1.3763 0.0000 -0.0000
X -0.9359 0.0000 0.0000
X 1.8346 0.0000 0.0000
4
EVM Radical Recombination Frame
H -1.3784 0.0000 -0.0000
H 1.3855 0.0000 -0.0000
X -0.9426 0.0000 0.0000
X 1.8332 0.0000 0.0000
4
EVM Radical Recombination Frame
H -1.3956 0.0000 -0.0000
H 1.3927 0.0000 -0.0000
X -0.9328 0.0000 0.0000
X 1.8333 0.0000 0.0000
4
EVM Radical Recombination Frame
H -1.4022 0.0000 -0.0000
H 1.3906 0.0000 -0.0000
X -0.9330 0.0000 0.0000
X 1.8424 0.0000 0.0000
4
EVM Radical Recombination Frame
H -1.3937 0.0000 -0.0000
H 1.3905 0.0000 -0.0000
X -0.9482 0.0000 0.0000
X 1.8491 0.0000 0.0000
4
EVM Radical Recombination Frame
H -1.3908 0.0000 -0.0000
H 1.3986 0.0000 -0.0000
X -0.9573 0.0000 0.0000
X 1.8472 0.0000 0.0000
4
EVM Radical Recombination Frame
H -1.4066 0.0000 -0.0000
H 1.4056 0.0000 -0.0000
X -0.9474 0.0000 0.0000
X 1.8461 0.0000 0.0000
4
EVM Radical Recombination Frame
H -1.4149 0.0000 -0.0000
H 1.4031 0.0000 -0.0000
X -0.9446 0.0000 0.0000
X 1.8541 0.0000 0.0000
4
EVM Radical Recombination Frame
H -1.4072 0.0000 -0.0000
H 1.4018 0.0000 -0.0000
X -0.9575 0.0000 0.0000
X 1.8605 0.0000 0.0000
4
EVM Radical Recombination Frame
H -1.4008 0.0000 -0.0000
H 1.4088 0.0000 -0.0000
X -0.9687 0.0000 0.0000
X 1.8583 0.0000 0.0000
4
EVM Radical Recombination Frame
H -1.4147 0.0000 -0.0000
H 1.4156 0.0000 -0.0000
X -0.9592 0.0000 0.0000
X 1.8559 0.0000 0.0000
4
EVM Radical Recombination Frame
H -1.4244 0.0000 -0.0000
H 1.4128 0.0000 -0.0000
X -0.9536 0.0000 0.0000
X 1.8628 0.0000 0.0000
4
EVM Radical Recombination Frame
H -1.4178 0.0000 -0.0000
H 1.4103 0.0000 -0.0000
X -0.9640 0.0000 0.0000
X 1.8691 0.0000 0.0000
4
EVM Radical Recombination Frame
H -1.4085 0.0000 -0.0000
H 1.4161 0.0000 -0.0000
X -0.9766 0.0000 0.0000
X 1.8667 0.0000 0.0000
4
EVM Radical Recombination Frame
H -1.4198 0.0000 -0.0000
H 1.4228 0.0000 -0.0000
X -0.9684 0.0000 0.0000
X 1.8631 0.0000 0.0000
4
EVM Radical Recombination Frame
H -1.4308 0.0000 -0.0000
H 1.4197 0.0000 -0.0000
X -0.9602 0.0000 0.0000
X 1.8688 0.0000 0.0000
4
EVM Radical Recombination Frame
H -1.4255 0.0000 -0.0000
H 1.4161 0.0000 -0.0000
X -0.9678 0.0000 0.0000
X 1.8748 0.0000 0.0000
4
EVM Radical Recombination Frame
H -1.4141 0.0000 -0.0000
H 1.4207 0.0000 -0.0000
X -0.9812 0.0000 0.0000
X 1.8722 0.0000 0.0000
4
EVM Radical Recombination Frame
H -1.4220 0.0000 -0.0000
H 1.4271 0.0000 -0.0000
X -0.9749 0.0000 0.0000
X 1.8675 0.0000 0.0000
4
EVM Radical Recombination Frame
H -1.4340 0.0000 -0.0000
H 1.4239 0.0000 -0.0000
X -0.9643 0.0000 0.0000
X 1.8720 0.0000 0.0000
4
EVM Radical Recombination Frame
H -1.4303 0.0000 -0.0000
H 1.4191 0.0000 -0.0000
X -0.9690 0.0000 0.0000
X 1.8778 0.0000 0.0000
4
EVM Radical Recombination Frame
H -1.4173 0.0000 -0.0000
H 1.4226 0.0000 -0.0000
X -0.9826 0.0000 0.0000
X 1.8749 0.0000 0.0000
4
EVM Radical Recombination Frame
H -1.4216 0.0000 -0.0000
H 1.4286 0.0000 -0.0000
X -0.9786 0.0000 0.0000
X 1.8692 0.0000 0.0000
4
EVM Radical Recombination Frame
H -1.4341 0.0000 -0.0000
H 1.4253 0.0000 -0.0000
X -0.9661 0.0000 0.0000
X 1.8725 0.0000 0.0000
4
EVM Radical Recombination Frame
H -1.4321 0.0000 -0.0000
H 1.4195 0.0000 -0.0000
X -0.9677 0.0000 0.0000
X 1.8779 0.0000 0.0000
4
EVM Radical Recombination Frame
H -1.4183 0.0000 -0.0000
H 1.4217 0.0000 -0.0000
X -0.9807 0.0000 0.0000
X 1.8750 0.0000 0.0000
